/*********************************************
 * OPL 12.6.0.0 Data
 * Author: Adrian Rodriguez Bazaga, Pau Rodriguez Esmerats
 * Creation Date: 06/12/2017 at 23:02:56
 *********************************************/

nNurses=132;
maxConsec=2;
maxPresence=7;
maxHours=5;
minHours=1;
hours=24;
demand= [27 17 37 44 17 37 44 18 22 20 1 5 3 5 4 4 4 2 3 0 16 31 16 30  ];
